; benchmark generated from python API
(set-info :status unknown)
(declare-fun cell_1_7 () Int)
(declare-fun cell_1_8 () Int)
(declare-fun cell_2_2 () Int)
(declare-fun cell_2_3 () Int)
(declare-fun cell_3_5 () Int)
(declare-fun cell_3_6 () Int)
(declare-fun cell_4_1 () Int)
(declare-fun cell_4_2 () Int)
(declare-fun cell_5_7 () Int)
(declare-fun cell_5_9 () Int)
(declare-fun cell_6_4 () Int)
(declare-fun cell_6_6 () Int)
(declare-fun cell_7_1 () Int)
(declare-fun cell_8_4 () Int)
(declare-fun cell_9_9 () Int)
(declare-fun cell_1_1 () Int)
(declare-fun cell_2_1 () Int)
(declare-fun cell_3_1 () Int)
(declare-fun cell_5_1 () Int)
(declare-fun cell_6_1 () Int)
(declare-fun cell_8_1 () Int)
(declare-fun cell_9_1 () Int)
(declare-fun cell_1_2 () Int)
(declare-fun cell_3_2 () Int)
(declare-fun cell_5_2 () Int)
(declare-fun cell_6_2 () Int)
(declare-fun cell_7_2 () Int)
(declare-fun cell_8_2 () Int)
(declare-fun cell_9_2 () Int)
(declare-fun cell_1_3 () Int)
(declare-fun cell_3_3 () Int)
(declare-fun cell_4_3 () Int)
(declare-fun cell_5_3 () Int)
(declare-fun cell_6_3 () Int)
(declare-fun cell_7_3 () Int)
(declare-fun cell_8_3 () Int)
(declare-fun cell_9_3 () Int)
(declare-fun cell_1_4 () Int)
(declare-fun cell_2_4 () Int)
(declare-fun cell_3_4 () Int)
(declare-fun cell_4_4 () Int)
(declare-fun cell_5_4 () Int)
(declare-fun cell_7_4 () Int)
(declare-fun cell_9_4 () Int)
(declare-fun cell_1_5 () Int)
(declare-fun cell_2_5 () Int)
(declare-fun cell_4_5 () Int)
(declare-fun cell_5_5 () Int)
(declare-fun cell_6_5 () Int)
(declare-fun cell_7_5 () Int)
(declare-fun cell_8_5 () Int)
(declare-fun cell_9_5 () Int)
(declare-fun cell_1_6 () Int)
(declare-fun cell_2_6 () Int)
(declare-fun cell_4_6 () Int)
(declare-fun cell_5_6 () Int)
(declare-fun cell_7_6 () Int)
(declare-fun cell_8_6 () Int)
(declare-fun cell_9_6 () Int)
(declare-fun cell_2_7 () Int)
(declare-fun cell_3_7 () Int)
(declare-fun cell_4_7 () Int)
(declare-fun cell_6_7 () Int)
(declare-fun cell_7_7 () Int)
(declare-fun cell_8_7 () Int)
(declare-fun cell_9_7 () Int)
(declare-fun cell_2_8 () Int)
(declare-fun cell_3_8 () Int)
(declare-fun cell_4_8 () Int)
(declare-fun cell_5_8 () Int)
(declare-fun cell_6_8 () Int)
(declare-fun cell_7_8 () Int)
(declare-fun cell_8_8 () Int)
(declare-fun cell_9_8 () Int)
(declare-fun cell_1_9 () Int)
(declare-fun cell_2_9 () Int)
(declare-fun cell_3_9 () Int)
(declare-fun cell_4_9 () Int)
(declare-fun cell_6_9 () Int)
(declare-fun cell_7_9 () Int)
(declare-fun cell_8_9 () Int)
(assert
 (= cell_1_7 2))
(assert
 (= cell_1_8 1))
(assert
 (= cell_2_2 2))
(assert
 (= cell_2_3 1))
(assert
 (= cell_3_5 1))
(assert
 (= cell_3_6 2))
(assert
 (= cell_4_1 2))
(assert
 (= cell_4_2 1))
(assert
 (= cell_5_7 1))
(assert
 (= cell_5_9 2))
(assert
 (= cell_6_4 2))
(assert
 (= cell_6_6 1))
(assert
 (= cell_7_1 1))
(assert
 (= cell_8_4 1))
(assert
 (= cell_9_9 1))
(assert
 (let (($x3088 (= cell_1_1 9)))
 (let (($x79 (= cell_1_1 8)))
 (let (($x169 (= cell_1_1 7)))
 (let (($x2646 (= cell_1_1 6)))
 (let (($x1218 (= cell_1_1 5)))
 (let (($x1499 (= cell_1_1 4)))
 (let (($x369 (= cell_1_1 3)))
 (let (($x837 (= cell_1_1 2)))
 (let (($x2789 (= cell_1_1 1)))
 (or $x2789 $x837 $x369 $x1499 $x1218 $x2646 $x169 $x79 $x3088)))))))))))
(assert
 (let (($x2198 (= cell_2_1 9)))
 (let (($x1902 (= cell_2_1 8)))
 (let (($x2304 (= cell_2_1 7)))
 (let (($x1276 (= cell_2_1 6)))
 (let (($x2864 (= cell_2_1 5)))
 (let (($x1993 (= cell_2_1 4)))
 (let (($x151 (= cell_2_1 3)))
 (let (($x3930 (= cell_2_1 2)))
 (let (($x430 (= cell_2_1 1)))
 (or $x430 $x3930 $x151 $x1993 $x2864 $x1276 $x2304 $x1902 $x2198)))))))))))
(assert
 (let (($x2719 (= cell_3_1 9)))
 (let (($x2168 (= cell_3_1 8)))
 (let (($x6749 (= cell_3_1 7)))
 (let (($x245 (= cell_3_1 6)))
 (let (($x563 (= cell_3_1 5)))
 (let (($x2080 (= cell_3_1 4)))
 (let (($x2383 (= cell_3_1 3)))
 (let (($x1711 (= cell_3_1 2)))
 (let (($x1475 (= cell_3_1 1)))
 (or $x1475 $x1711 $x2383 $x2080 $x563 $x245 $x6749 $x2168 $x2719)))))))))))
(assert
 (let (($x2603 (= cell_4_1 2)))
 (or (= cell_4_1 1) $x2603 (= cell_4_1 3) (= cell_4_1 4) (= cell_4_1 5) (= cell_4_1 6) (= cell_4_1 7) (= cell_4_1 8) (= cell_4_1 9))))
(assert
 (let (($x4151 (= cell_5_1 9)))
 (let (($x1555 (= cell_5_1 8)))
 (let (($x2875 (= cell_5_1 7)))
 (let (($x386 (= cell_5_1 6)))
 (let (($x2302 (= cell_5_1 5)))
 (let (($x680 (= cell_5_1 4)))
 (let (($x924 (= cell_5_1 3)))
 (let (($x4210 (= cell_5_1 2)))
 (let (($x7975 (= cell_5_1 1)))
 (or $x7975 $x4210 $x924 $x680 $x2302 $x386 $x2875 $x1555 $x4151)))))))))))
(assert
 (let (($x523 (= cell_6_1 9)))
 (let (($x2651 (= cell_6_1 8)))
 (let (($x2439 (= cell_6_1 7)))
 (let (($x1228 (= cell_6_1 6)))
 (let (($x3667 (= cell_6_1 5)))
 (let (($x2082 (= cell_6_1 4)))
 (let (($x4187 (= cell_6_1 3)))
 (let (($x8027 (= cell_6_1 2)))
 (let (($x2817 (= cell_6_1 1)))
 (or $x2817 $x8027 $x4187 $x2082 $x3667 $x1228 $x2439 $x2651 $x523)))))))))))
(assert
 (let (($x7340 (= cell_7_1 1)))
 (or $x7340 (= cell_7_1 2) (= cell_7_1 3) (= cell_7_1 4) (= cell_7_1 5) (= cell_7_1 6) (= cell_7_1 7) (= cell_7_1 8) (= cell_7_1 9))))
(assert
 (let (($x1120 (= cell_8_1 9)))
 (let (($x1716 (= cell_8_1 8)))
 (let (($x4086 (= cell_8_1 7)))
 (let (($x3976 (= cell_8_1 6)))
 (let (($x1358 (= cell_8_1 5)))
 (let (($x4068 (= cell_8_1 4)))
 (let (($x2352 (= cell_8_1 3)))
 (let (($x7763 (= cell_8_1 2)))
 (let (($x283 (= cell_8_1 1)))
 (or $x283 $x7763 $x2352 $x4068 $x1358 $x3976 $x4086 $x1716 $x1120)))))))))))
(assert
 (let (($x1022 (= cell_9_1 9)))
 (let (($x1031 (= cell_9_1 8)))
 (let (($x3720 (= cell_9_1 7)))
 (let (($x2110 (= cell_9_1 6)))
 (let (($x3696 (= cell_9_1 5)))
 (let (($x1359 (= cell_9_1 4)))
 (let (($x2854 (= cell_9_1 3)))
 (let (($x145 (= cell_9_1 2)))
 (let (($x1456 (= cell_9_1 1)))
 (or $x1456 $x145 $x2854 $x1359 $x3696 $x2110 $x3720 $x1031 $x1022)))))))))))
(assert
 (let (($x7292 (= cell_1_2 9)))
 (let (($x8009 (= cell_1_2 8)))
 (let (($x1517 (= cell_1_2 7)))
 (let (($x2091 (= cell_1_2 6)))
 (let (($x4083 (= cell_1_2 5)))
 (let (($x2130 (= cell_1_2 4)))
 (let (($x3384 (= cell_1_2 3)))
 (let (($x697 (= cell_1_2 2)))
 (let (($x1553 (= cell_1_2 1)))
 (or $x1553 $x697 $x3384 $x2130 $x4083 $x2091 $x1517 $x8009 $x7292)))))))))))
(assert
 (let (($x2148 (= cell_2_2 2)))
 (or (= cell_2_2 1) $x2148 (= cell_2_2 3) (= cell_2_2 4) (= cell_2_2 5) (= cell_2_2 6) (= cell_2_2 7) (= cell_2_2 8) (= cell_2_2 9))))
(assert
 (let (($x490 (= cell_3_2 9)))
 (let (($x168 (= cell_3_2 8)))
 (let (($x3059 (= cell_3_2 7)))
 (let (($x7803 (= cell_3_2 6)))
 (let (($x3540 (= cell_3_2 5)))
 (let (($x2656 (= cell_3_2 4)))
 (let (($x2821 (= cell_3_2 3)))
 (let (($x2481 (= cell_3_2 2)))
 (let (($x891 (= cell_3_2 1)))
 (or $x891 $x2481 $x2821 $x2656 $x3540 $x7803 $x3059 $x168 $x490)))))))))))
(assert
 (let (($x2863 (= cell_4_2 1)))
 (or $x2863 (= cell_4_2 2) (= cell_4_2 3) (= cell_4_2 4) (= cell_4_2 5) (= cell_4_2 6) (= cell_4_2 7) (= cell_4_2 8) (= cell_4_2 9))))
(assert
 (let (($x3724 (= cell_5_2 9)))
 (let (($x1516 (= cell_5_2 8)))
 (let (($x142 (= cell_5_2 7)))
 (let (($x3504 (= cell_5_2 6)))
 (let (($x1915 (= cell_5_2 5)))
 (let (($x2473 (= cell_5_2 4)))
 (let (($x3835 (= cell_5_2 3)))
 (let (($x6755 (= cell_5_2 2)))
 (let (($x616 (= cell_5_2 1)))
 (or $x616 $x6755 $x3835 $x2473 $x1915 $x3504 $x142 $x1516 $x3724)))))))))))
(assert
 (let (($x1874 (= cell_6_2 9)))
 (let (($x829 (= cell_6_2 8)))
 (let (($x3769 (= cell_6_2 7)))
 (let (($x941 (= cell_6_2 6)))
 (let (($x3783 (= cell_6_2 5)))
 (let (($x3845 (= cell_6_2 4)))
 (let (($x3284 (= cell_6_2 3)))
 (let (($x1602 (= cell_6_2 2)))
 (let (($x7770 (= cell_6_2 1)))
 (or $x7770 $x1602 $x3284 $x3845 $x3783 $x941 $x3769 $x829 $x1874)))))))))))
(assert
 (let (($x1527 (= cell_7_2 2)))
 (let (($x174 (= cell_7_2 1)))
 (or $x174 $x1527 (= cell_7_2 3) (= cell_7_2 4) (= cell_7_2 5) (= cell_7_2 6) (= cell_7_2 7) (= cell_7_2 8) (= cell_7_2 9)))))
(assert
 (let (($x2452 (= cell_8_2 9)))
 (let (($x2052 (= cell_8_2 8)))
 (let (($x7344 (= cell_8_2 7)))
 (let (($x2668 (= cell_8_2 6)))
 (let (($x7464 (= cell_8_2 5)))
 (let (($x802 (= cell_8_2 4)))
 (let (($x2598 (= cell_8_2 3)))
 (let (($x1815 (= cell_8_2 2)))
 (let (($x679 (= cell_8_2 1)))
 (or $x679 $x1815 $x2598 $x802 $x7464 $x2668 $x7344 $x2052 $x2452)))))))))))
(assert
 (let (($x3682 (= cell_9_2 9)))
 (let (($x1947 (= cell_9_2 8)))
 (let (($x3500 (= cell_9_2 7)))
 (let (($x3518 (= cell_9_2 6)))
 (let (($x1469 (= cell_9_2 5)))
 (let (($x2407 (= cell_9_2 4)))
 (let (($x119 (= cell_9_2 3)))
 (let (($x645 (= cell_9_2 2)))
 (let (($x4025 (= cell_9_2 1)))
 (or $x4025 $x645 $x119 $x2407 $x1469 $x3518 $x3500 $x1947 $x3682)))))))))))
(assert
 (let (($x2039 (= cell_1_3 9)))
 (let (($x1790 (= cell_1_3 8)))
 (let (($x3665 (= cell_1_3 7)))
 (let (($x3533 (= cell_1_3 6)))
 (let (($x2962 (= cell_1_3 5)))
 (let (($x708 (= cell_1_3 4)))
 (let (($x651 (= cell_1_3 3)))
 (let (($x3122 (= cell_1_3 2)))
 (let (($x2461 (= cell_1_3 1)))
 (or $x2461 $x3122 $x651 $x708 $x2962 $x3533 $x3665 $x1790 $x2039)))))))))))
(assert
 (let (($x2738 (= cell_2_3 1)))
 (or $x2738 (= cell_2_3 2) (= cell_2_3 3) (= cell_2_3 4) (= cell_2_3 5) (= cell_2_3 6) (= cell_2_3 7) (= cell_2_3 8) (= cell_2_3 9))))
(assert
 (let (($x3073 (= cell_3_3 9)))
 (let (($x499 (= cell_3_3 8)))
 (let (($x2881 (= cell_3_3 7)))
 (let (($x1932 (= cell_3_3 6)))
 (let (($x473 (= cell_3_3 5)))
 (let (($x3728 (= cell_3_3 4)))
 (let (($x727 (= cell_3_3 3)))
 (let (($x1582 (= cell_3_3 2)))
 (let (($x1817 (= cell_3_3 1)))
 (or $x1817 $x1582 $x727 $x3728 $x473 $x1932 $x2881 $x499 $x3073)))))))))))
(assert
 (let (($x7483 (= cell_4_3 2)))
 (let (($x7761 (= cell_4_3 1)))
 (or $x7761 $x7483 (= cell_4_3 3) (= cell_4_3 4) (= cell_4_3 5) (= cell_4_3 6) (= cell_4_3 7) (= cell_4_3 8) (= cell_4_3 9)))))
(assert
 (let (($x434 (= cell_5_3 9)))
 (let (($x1616 (= cell_5_3 8)))
 (let (($x1594 (= cell_5_3 7)))
 (let (($x817 (= cell_5_3 6)))
 (let (($x656 (= cell_5_3 5)))
 (let (($x2041 (= cell_5_3 4)))
 (let (($x549 (= cell_5_3 3)))
 (let (($x960 (= cell_5_3 2)))
 (let (($x3777 (= cell_5_3 1)))
 (or $x3777 $x960 $x549 $x2041 $x656 $x817 $x1594 $x1616 $x434)))))))))))
(assert
 (let (($x1997 (= cell_6_3 9)))
 (let (($x350 (= cell_6_3 8)))
 (let (($x1135 (= cell_6_3 7)))
 (let (($x3968 (= cell_6_3 6)))
 (let (($x2339 (= cell_6_3 5)))
 (let (($x3686 (= cell_6_3 4)))
 (let (($x1463 (= cell_6_3 3)))
 (let (($x6581 (= cell_6_3 2)))
 (let (($x7519 (= cell_6_3 1)))
 (or $x7519 $x6581 $x1463 $x3686 $x2339 $x3968 $x1135 $x350 $x1997)))))))))))
(assert
 (let (($x4189 (= cell_7_3 9)))
 (let (($x3177 (= cell_7_3 8)))
 (let (($x1380 (= cell_7_3 7)))
 (let (($x3417 (= cell_7_3 6)))
 (let (($x691 (= cell_7_3 5)))
 (let (($x10 (= cell_7_3 4)))
 (let (($x6714 (= cell_7_3 3)))
 (let (($x1009 (= cell_7_3 2)))
 (let (($x3642 (= cell_7_3 1)))
 (or $x3642 $x1009 $x6714 $x10 $x691 $x3417 $x1380 $x3177 $x4189)))))))))))
(assert
 (let (($x2425 (= cell_8_3 9)))
 (let (($x2070 (= cell_8_3 8)))
 (let (($x2609 (= cell_8_3 7)))
 (let (($x3399 (= cell_8_3 6)))
 (let (($x781 (= cell_8_3 5)))
 (let (($x2975 (= cell_8_3 4)))
 (let (($x73 (= cell_8_3 3)))
 (let (($x500 (= cell_8_3 2)))
 (let (($x2840 (= cell_8_3 1)))
 (or $x2840 $x500 $x73 $x2975 $x781 $x3399 $x2609 $x2070 $x2425)))))))))))
(assert
 (let (($x254 (= cell_9_3 9)))
 (let (($x4112 (= cell_9_3 8)))
 (let (($x1311 (= cell_9_3 7)))
 (let (($x2606 (= cell_9_3 6)))
 (let (($x1668 (= cell_9_3 5)))
 (let (($x2493 (= cell_9_3 4)))
 (let (($x1246 (= cell_9_3 3)))
 (let (($x2835 (= cell_9_3 2)))
 (let (($x947 (= cell_9_3 1)))
 (or $x947 $x2835 $x1246 $x2493 $x1668 $x2606 $x1311 $x4112 $x254)))))))))))
(assert
 (let (($x361 (= cell_1_4 9)))
 (let (($x335 (= cell_1_4 8)))
 (let (($x2281 (= cell_1_4 7)))
 (let (($x4155 (= cell_1_4 6)))
 (let (($x2676 (= cell_1_4 5)))
 (let (($x2038 (= cell_1_4 4)))
 (let (($x2800 (= cell_1_4 3)))
 (let (($x3292 (= cell_1_4 2)))
 (let (($x2853 (= cell_1_4 1)))
 (or $x2853 $x3292 $x2800 $x2038 $x2676 $x4155 $x2281 $x335 $x361)))))))))))
(assert
 (let (($x2604 (= cell_2_4 9)))
 (let (($x3430 (= cell_2_4 8)))
 (let (($x358 (= cell_2_4 7)))
 (let (($x1180 (= cell_2_4 6)))
 (let (($x2178 (= cell_2_4 5)))
 (let (($x2104 (= cell_2_4 4)))
 (let (($x901 (= cell_2_4 3)))
 (let (($x2402 (= cell_2_4 2)))
 (let (($x1176 (= cell_2_4 1)))
 (or $x1176 $x2402 $x901 $x2104 $x2178 $x1180 $x358 $x3430 $x2604)))))))))))
(assert
 (let (($x548 (= cell_3_4 9)))
 (let (($x2431 (= cell_3_4 8)))
 (let (($x1647 (= cell_3_4 7)))
 (let (($x7776 (= cell_3_4 6)))
 (let (($x1988 (= cell_3_4 5)))
 (let (($x931 (= cell_3_4 4)))
 (let (($x1608 (= cell_3_4 3)))
 (let (($x630 (= cell_3_4 2)))
 (let (($x417 (= cell_3_4 1)))
 (or $x417 $x630 $x1608 $x931 $x1988 $x7776 $x1647 $x2431 $x548)))))))))))
(assert
 (let (($x932 (= cell_4_4 9)))
 (let (($x2288 (= cell_4_4 8)))
 (let (($x2429 (= cell_4_4 7)))
 (let (($x7486 (= cell_4_4 6)))
 (let (($x3459 (= cell_4_4 5)))
 (let (($x2765 (= cell_4_4 4)))
 (let (($x91 (= cell_4_4 3)))
 (let (($x832 (= cell_4_4 2)))
 (let (($x775 (= cell_4_4 1)))
 (or $x775 $x832 $x91 $x2765 $x3459 $x7486 $x2429 $x2288 $x932)))))))))))
(assert
 (let (($x2833 (= cell_5_4 9)))
 (let (($x3627 (= cell_5_4 8)))
 (let (($x1969 (= cell_5_4 7)))
 (let (($x2661 (= cell_5_4 6)))
 (let (($x2569 (= cell_5_4 5)))
 (let (($x607 (= cell_5_4 4)))
 (let (($x747 (= cell_5_4 3)))
 (let (($x4043 (= cell_5_4 2)))
 (let (($x3109 (= cell_5_4 1)))
 (or $x3109 $x4043 $x747 $x607 $x2569 $x2661 $x1969 $x3627 $x2833)))))))))))
(assert
 (let (($x3448 (= cell_6_4 2)))
 (or (= cell_6_4 1) $x3448 (= cell_6_4 3) (= cell_6_4 4) (= cell_6_4 5) (= cell_6_4 6) (= cell_6_4 7) (= cell_6_4 8) (= cell_6_4 9))))
(assert
 (let (($x3100 (= cell_7_4 9)))
 (let (($x2634 (= cell_7_4 8)))
 (let (($x2229 (= cell_7_4 7)))
 (let (($x1639 (= cell_7_4 6)))
 (let (($x2768 (= cell_7_4 5)))
 (let (($x1408 (= cell_7_4 4)))
 (let (($x2546 (= cell_7_4 3)))
 (let (($x2007 (= cell_7_4 2)))
 (let (($x2930 (= cell_7_4 1)))
 (or $x2930 $x2007 $x2546 $x1408 $x2768 $x1639 $x2229 $x2634 $x3100)))))))))))
(assert
 (let (($x2740 (= cell_8_4 1)))
 (or $x2740 (= cell_8_4 2) (= cell_8_4 3) (= cell_8_4 4) (= cell_8_4 5) (= cell_8_4 6) (= cell_8_4 7) (= cell_8_4 8) (= cell_8_4 9))))
(assert
 (let (($x1926 (= cell_9_4 9)))
 (let (($x709 (= cell_9_4 8)))
 (let (($x484 (= cell_9_4 7)))
 (let (($x2254 (= cell_9_4 6)))
 (let (($x1919 (= cell_9_4 5)))
 (let (($x3764 (= cell_9_4 4)))
 (let (($x3261 (= cell_9_4 3)))
 (let (($x2503 (= cell_9_4 2)))
 (let (($x117 (= cell_9_4 1)))
 (or $x117 $x2503 $x3261 $x3764 $x1919 $x2254 $x484 $x709 $x1926)))))))))))
(assert
 (let (($x2294 (= cell_1_5 9)))
 (let (($x16 (= cell_1_5 8)))
 (let (($x1186 (= cell_1_5 7)))
 (let (($x746 (= cell_1_5 6)))
 (let (($x2426 (= cell_1_5 5)))
 (let (($x2490 (= cell_1_5 4)))
 (let (($x1530 (= cell_1_5 3)))
 (let (($x6865 (= cell_1_5 2)))
 (let (($x778 (= cell_1_5 1)))
 (or $x778 $x6865 $x1530 $x2490 $x2426 $x746 $x1186 $x16 $x2294)))))))))))
(assert
 (let (($x1879 (= cell_2_5 9)))
 (let (($x3730 (= cell_2_5 8)))
 (let (($x2361 (= cell_2_5 7)))
 (let (($x1864 (= cell_2_5 6)))
 (let (($x3044 (= cell_2_5 5)))
 (let (($x587 (= cell_2_5 4)))
 (let (($x2771 (= cell_2_5 3)))
 (let (($x7814 (= cell_2_5 2)))
 (let (($x3902 (= cell_2_5 1)))
 (or $x3902 $x7814 $x2771 $x587 $x3044 $x1864 $x2361 $x3730 $x1879)))))))))))
(assert
 (let (($x3741 (= cell_3_5 1)))
 (or $x3741 (= cell_3_5 2) (= cell_3_5 3) (= cell_3_5 4) (= cell_3_5 5) (= cell_3_5 6) (= cell_3_5 7) (= cell_3_5 8) (= cell_3_5 9))))
(assert
 (let (($x3973 (= cell_4_5 9)))
 (let (($x1201 (= cell_4_5 8)))
 (let (($x300 (= cell_4_5 7)))
 (let (($x1257 (= cell_4_5 6)))
 (let (($x6988 (= cell_4_5 5)))
 (let (($x667 (= cell_4_5 4)))
 (let (($x3941 (= cell_4_5 3)))
 (let (($x2128 (= cell_4_5 2)))
 (let (($x4111 (= cell_4_5 1)))
 (or $x4111 $x2128 $x3941 $x667 $x6988 $x1257 $x300 $x1201 $x3973)))))))))))
(assert
 (let (($x860 (= cell_5_5 9)))
 (let (($x6616 (= cell_5_5 8)))
 (let (($x2693 (= cell_5_5 7)))
 (let (($x3347 (= cell_5_5 6)))
 (let (($x315 (= cell_5_5 5)))
 (let (($x1086 (= cell_5_5 4)))
 (let (($x1119 (= cell_5_5 3)))
 (let (($x1196 (= cell_5_5 2)))
 (let (($x1974 (= cell_5_5 1)))
 (or $x1974 $x1196 $x1119 $x1086 $x315 $x3347 $x2693 $x6616 $x860)))))))))))
(assert
 (let (($x1838 (= cell_6_5 9)))
 (let (($x3216 (= cell_6_5 8)))
 (let (($x1882 (= cell_6_5 7)))
 (let (($x3391 (= cell_6_5 6)))
 (let (($x375 (= cell_6_5 5)))
 (let (($x3750 (= cell_6_5 4)))
 (let (($x1244 (= cell_6_5 3)))
 (let (($x3886 (= cell_6_5 2)))
 (let (($x3002 (= cell_6_5 1)))
 (or $x3002 $x3886 $x1244 $x3750 $x375 $x3391 $x1882 $x3216 $x1838)))))))))))
(assert
 (let (($x659 (= cell_7_5 9)))
 (let (($x3354 (= cell_7_5 8)))
 (let (($x1706 (= cell_7_5 7)))
 (let (($x2116 (= cell_7_5 6)))
 (let (($x2556 (= cell_7_5 5)))
 (let (($x2903 (= cell_7_5 4)))
 (let (($x2205 (= cell_7_5 3)))
 (let (($x1391 (= cell_7_5 2)))
 (let (($x1231 (= cell_7_5 1)))
 (or $x1231 $x1391 $x2205 $x2903 $x2556 $x2116 $x1706 $x3354 $x659)))))))))))
(assert
 (let (($x3167 (= cell_8_5 1)))
 (or $x3167 (= cell_8_5 2) (= cell_8_5 3) (= cell_8_5 4) (= cell_8_5 5) (= cell_8_5 6) (= cell_8_5 7) (= cell_8_5 8) (= cell_8_5 9))))
(assert
 (let (($x7324 (= cell_9_5 9)))
 (let (($x7795 (= cell_9_5 8)))
 (let (($x2620 (= cell_9_5 7)))
 (let (($x152 (= cell_9_5 6)))
 (let (($x2581 (= cell_9_5 5)))
 (let (($x3763 (= cell_9_5 4)))
 (let (($x2419 (= cell_9_5 3)))
 (let (($x2005 (= cell_9_5 2)))
 (let (($x1082 (= cell_9_5 1)))
 (or $x1082 $x2005 $x2419 $x3763 $x2581 $x152 $x2620 $x7795 $x7324)))))))))))
(assert
 (let (($x7884 (= cell_1_6 9)))
 (let (($x1344 (= cell_1_6 8)))
 (let (($x317 (= cell_1_6 7)))
 (let (($x700 (= cell_1_6 6)))
 (let (($x2421 (= cell_1_6 5)))
 (let (($x1925 (= cell_1_6 4)))
 (let (($x2681 (= cell_1_6 3)))
 (let (($x2674 (= cell_1_6 2)))
 (let (($x3264 (= cell_1_6 1)))
 (or $x3264 $x2674 $x2681 $x1925 $x2421 $x700 $x317 $x1344 $x7884)))))))))))
(assert
 (let (($x3833 (= cell_2_6 9)))
 (let (($x3827 (= cell_2_6 8)))
 (let (($x1191 (= cell_2_6 7)))
 (let (($x419 (= cell_2_6 6)))
 (let (($x1927 (= cell_2_6 5)))
 (let (($x2999 (= cell_2_6 4)))
 (let (($x6700 (= cell_2_6 3)))
 (let (($x1039 (= cell_2_6 2)))
 (let (($x600 (= cell_2_6 1)))
 (or $x600 $x1039 $x6700 $x2999 $x1927 $x419 $x1191 $x3827 $x3833)))))))))))
(assert
 (let (($x2552 (= cell_3_6 2)))
 (or (= cell_3_6 1) $x2552 (= cell_3_6 3) (= cell_3_6 4) (= cell_3_6 5) (= cell_3_6 6) (= cell_3_6 7) (= cell_3_6 8) (= cell_3_6 9))))
(assert
 (let (($x741 (= cell_4_6 9)))
 (let (($x610 (= cell_4_6 8)))
 (let (($x1081 (= cell_4_6 7)))
 (let (($x2455 (= cell_4_6 6)))
 (let (($x1407 (= cell_4_6 5)))
 (let (($x1401 (= cell_4_6 4)))
 (let (($x1521 (= cell_4_6 3)))
 (let (($x516 (= cell_4_6 2)))
 (let (($x1994 (= cell_4_6 1)))
 (or $x1994 $x516 $x1521 $x1401 $x1407 $x2455 $x1081 $x610 $x741)))))))))))
(assert
 (let (($x3429 (= cell_5_6 9)))
 (let (($x933 (= cell_5_6 8)))
 (let (($x3341 (= cell_5_6 7)))
 (let (($x3857 (= cell_5_6 6)))
 (let (($x3230 (= cell_5_6 5)))
 (let (($x3168 (= cell_5_6 4)))
 (let (($x1067 (= cell_5_6 3)))
 (let (($x1792 (= cell_5_6 2)))
 (let (($x1867 (= cell_5_6 1)))
 (or $x1867 $x1792 $x1067 $x3168 $x3230 $x3857 $x3341 $x933 $x3429)))))))))))
(assert
 (let (($x3014 (= cell_6_6 1)))
 (or $x3014 (= cell_6_6 2) (= cell_6_6 3) (= cell_6_6 4) (= cell_6_6 5) (= cell_6_6 6) (= cell_6_6 7) (= cell_6_6 8) (= cell_6_6 9))))
(assert
 (let (($x3628 (= cell_7_6 9)))
 (let (($x2933 (= cell_7_6 8)))
 (let (($x552 (= cell_7_6 7)))
 (let (($x4163 (= cell_7_6 6)))
 (let (($x2670 (= cell_7_6 5)))
 (let (($x1153 (= cell_7_6 4)))
 (let (($x7853 (= cell_7_6 3)))
 (let (($x4132 (= cell_7_6 2)))
 (let (($x1406 (= cell_7_6 1)))
 (or $x1406 $x4132 $x7853 $x1153 $x2670 $x4163 $x552 $x2933 $x3628)))))))))))
(assert
 (let (($x6936 (= cell_8_6 2)))
 (let (($x436 (= cell_8_6 1)))
 (or $x436 $x6936 (= cell_8_6 3) (= cell_8_6 4) (= cell_8_6 5) (= cell_8_6 6) (= cell_8_6 7) (= cell_8_6 8) (= cell_8_6 9)))))
(assert
 (let (($x723 (= cell_9_6 9)))
 (let (($x7999 (= cell_9_6 8)))
 (let (($x3410 (= cell_9_6 7)))
 (let (($x1236 (= cell_9_6 6)))
 (let (($x1370 (= cell_9_6 5)))
 (let (($x1262 (= cell_9_6 4)))
 (let (($x3711 (= cell_9_6 3)))
 (let (($x7667 (= cell_9_6 2)))
 (let (($x749 (= cell_9_6 1)))
 (or $x749 $x7667 $x3711 $x1262 $x1370 $x1236 $x3410 $x7999 $x723)))))))))))
(assert
 (let (($x3867 (= cell_1_7 2)))
 (or (= cell_1_7 1) $x3867 (= cell_1_7 3) (= cell_1_7 4) (= cell_1_7 5) (= cell_1_7 6) (= cell_1_7 7) (= cell_1_7 8) (= cell_1_7 9))))
(assert
 (let (($x3943 (= cell_2_7 9)))
 (let (($x3823 (= cell_2_7 8)))
 (let (($x2015 (= cell_2_7 7)))
 (let (($x385 (= cell_2_7 6)))
 (let (($x2915 (= cell_2_7 5)))
 (let (($x1766 (= cell_2_7 4)))
 (let (($x2316 (= cell_2_7 3)))
 (let (($x622 (= cell_2_7 2)))
 (let (($x7319 (= cell_2_7 1)))
 (or $x7319 $x622 $x2316 $x1766 $x2915 $x385 $x2015 $x3823 $x3943)))))))))))
(assert
 (let (($x2810 (= cell_3_7 9)))
 (let (($x1473 (= cell_3_7 8)))
 (let (($x3283 (= cell_3_7 7)))
 (let (($x3038 (= cell_3_7 6)))
 (let (($x376 (= cell_3_7 5)))
 (let (($x3440 (= cell_3_7 4)))
 (let (($x4119 (= cell_3_7 3)))
 (let (($x1533 (= cell_3_7 2)))
 (let (($x1289 (= cell_3_7 1)))
 (or $x1289 $x1533 $x4119 $x3440 $x376 $x3038 $x3283 $x1473 $x2810)))))))))))
(assert
 (let (($x3451 (= cell_4_7 9)))
 (let (($x2242 (= cell_4_7 8)))
 (let (($x3485 (= cell_4_7 7)))
 (let (($x3674 (= cell_4_7 6)))
 (let (($x1747 (= cell_4_7 5)))
 (let (($x40 (= cell_4_7 4)))
 (let (($x3509 (= cell_4_7 3)))
 (let (($x2432 (= cell_4_7 2)))
 (let (($x2648 (= cell_4_7 1)))
 (or $x2648 $x2432 $x3509 $x40 $x1747 $x3674 $x3485 $x2242 $x3451)))))))))))
(assert
 (let (($x2374 (= cell_5_7 1)))
 (or $x2374 (= cell_5_7 2) (= cell_5_7 3) (= cell_5_7 4) (= cell_5_7 5) (= cell_5_7 6) (= cell_5_7 7) (= cell_5_7 8) (= cell_5_7 9))))
(assert
 (let (($x7040 (= cell_6_7 2)))
 (let (($x1209 (= cell_6_7 1)))
 (or $x1209 $x7040 (= cell_6_7 3) (= cell_6_7 4) (= cell_6_7 5) (= cell_6_7 6) (= cell_6_7 7) (= cell_6_7 8) (= cell_6_7 9)))))
(assert
 (let (($x3668 (= cell_7_7 9)))
 (let (($x3043 (= cell_7_7 8)))
 (let (($x3185 (= cell_7_7 7)))
 (let (($x325 (= cell_7_7 6)))
 (let (($x3624 (= cell_7_7 5)))
 (let (($x3895 (= cell_7_7 4)))
 (let (($x7 (= cell_7_7 3)))
 (let (($x4166 (= cell_7_7 2)))
 (let (($x606 (= cell_7_7 1)))
 (or $x606 $x4166 $x7 $x3895 $x3624 $x325 $x3185 $x3043 $x3668)))))))))))
(assert
 (let (($x3377 (= cell_8_7 9)))
 (let (($x2630 (= cell_8_7 8)))
 (let (($x1312 (= cell_8_7 7)))
 (let (($x6759 (= cell_8_7 6)))
 (let (($x1487 (= cell_8_7 5)))
 (let (($x3916 (= cell_8_7 4)))
 (let (($x1047 (= cell_8_7 3)))
 (let (($x102 (= cell_8_7 2)))
 (let (($x291 (= cell_8_7 1)))
 (or $x291 $x102 $x1047 $x3916 $x1487 $x6759 $x1312 $x2630 $x3377)))))))))))
(assert
 (let (($x8006 (= cell_9_7 9)))
 (let (($x519 (= cell_9_7 8)))
 (let (($x7872 (= cell_9_7 7)))
 (let (($x4150 (= cell_9_7 6)))
 (let (($x3257 (= cell_9_7 5)))
 (let (($x3432 (= cell_9_7 4)))
 (let (($x1789 (= cell_9_7 3)))
 (let (($x3567 (= cell_9_7 2)))
 (let (($x415 (= cell_9_7 1)))
 (or $x415 $x3567 $x1789 $x3432 $x3257 $x4150 $x7872 $x519 $x8006)))))))))))
(assert
 (let (($x1363 (= cell_1_8 1)))
 (or $x1363 (= cell_1_8 2) (= cell_1_8 3) (= cell_1_8 4) (= cell_1_8 5) (= cell_1_8 6) (= cell_1_8 7) (= cell_1_8 8) (= cell_1_8 9))))
(assert
 (let (($x1168 (= cell_2_8 2)))
 (let (($x1690 (= cell_2_8 1)))
 (or $x1690 $x1168 (= cell_2_8 3) (= cell_2_8 4) (= cell_2_8 5) (= cell_2_8 6) (= cell_2_8 7) (= cell_2_8 8) (= cell_2_8 9)))))
(assert
 (let (($x1280 (= cell_3_8 2)))
 (let (($x8015 (= cell_3_8 1)))
 (or $x8015 $x1280 (= cell_3_8 3) (= cell_3_8 4) (= cell_3_8 5) (= cell_3_8 6) (= cell_3_8 7) (= cell_3_8 8) (= cell_3_8 9)))))
(assert
 (let (($x1845 (= cell_4_8 9)))
 (let (($x3817 (= cell_4_8 8)))
 (let (($x4194 (= cell_4_8 7)))
 (let (($x2732 (= cell_4_8 6)))
 (let (($x3329 (= cell_4_8 5)))
 (let (($x919 (= cell_4_8 4)))
 (let (($x1539 (= cell_4_8 3)))
 (let (($x7345 (= cell_4_8 2)))
 (let (($x232 (= cell_4_8 1)))
 (or $x232 $x7345 $x1539 $x919 $x3329 $x2732 $x4194 $x3817 $x1845)))))))))))
(assert
 (let (($x7494 (= cell_5_8 9)))
 (let (($x1171 (= cell_5_8 8)))
 (let (($x2384 (= cell_5_8 7)))
 (let (($x3225 (= cell_5_8 6)))
 (let (($x4174 (= cell_5_8 5)))
 (let (($x6820 (= cell_5_8 4)))
 (let (($x1295 (= cell_5_8 3)))
 (let (($x6981 (= cell_5_8 2)))
 (let (($x2570 (= cell_5_8 1)))
 (or $x2570 $x6981 $x1295 $x6820 $x4174 $x3225 $x2384 $x1171 $x7494)))))))))))
(assert
 (let (($x784 (= cell_6_8 2)))
 (let (($x1042 (= cell_6_8 1)))
 (or $x1042 $x784 (= cell_6_8 3) (= cell_6_8 4) (= cell_6_8 5) (= cell_6_8 6) (= cell_6_8 7) (= cell_6_8 8) (= cell_6_8 9)))))
(assert
 (let (($x3547 (= cell_7_8 9)))
 (let (($x356 (= cell_7_8 8)))
 (let (($x2271 (= cell_7_8 7)))
 (let (($x1584 (= cell_7_8 6)))
 (let (($x2317 (= cell_7_8 5)))
 (let (($x3709 (= cell_7_8 4)))
 (let (($x89 (= cell_7_8 3)))
 (let (($x2786 (= cell_7_8 2)))
 (let (($x2720 (= cell_7_8 1)))
 (or $x2720 $x2786 $x89 $x3709 $x2317 $x1584 $x2271 $x356 $x3547)))))))))))
(assert
 (let (($x6929 (= cell_8_8 9)))
 (let (($x991 (= cell_8_8 8)))
 (let (($x3919 (= cell_8_8 7)))
 (let (($x619 (= cell_8_8 6)))
 (let (($x2185 (= cell_8_8 5)))
 (let (($x1036 (= cell_8_8 4)))
 (let (($x3092 (= cell_8_8 3)))
 (let (($x225 (= cell_8_8 2)))
 (let (($x2162 (= cell_8_8 1)))
 (or $x2162 $x225 $x3092 $x1036 $x2185 $x619 $x3919 $x991 $x6929)))))))))))
(assert
 (let (($x1830 (= cell_9_8 9)))
 (let (($x1048 (= cell_9_8 8)))
 (let (($x1184 (= cell_9_8 7)))
 (let (($x494 (= cell_9_8 6)))
 (let (($x311 (= cell_9_8 5)))
 (let (($x1145 (= cell_9_8 4)))
 (let (($x2861 (= cell_9_8 3)))
 (let (($x183 (= cell_9_8 2)))
 (let (($x770 (= cell_9_8 1)))
 (or $x770 $x183 $x2861 $x1145 $x311 $x494 $x1184 $x1048 $x1830)))))))))))
(assert
 (let (($x3087 (= cell_1_9 9)))
 (let (($x1065 (= cell_1_9 8)))
 (let (($x2941 (= cell_1_9 7)))
 (let (($x2412 (= cell_1_9 6)))
 (let (($x2641 (= cell_1_9 5)))
 (let (($x2428 (= cell_1_9 4)))
 (let (($x505 (= cell_1_9 3)))
 (let (($x3981 (= cell_1_9 2)))
 (let (($x2013 (= cell_1_9 1)))
 (or $x2013 $x3981 $x505 $x2428 $x2641 $x2412 $x2941 $x1065 $x3087)))))))))))
(assert
 (let (($x50 (= cell_2_9 9)))
 (let (($x2703 (= cell_2_9 8)))
 (let (($x2190 (= cell_2_9 7)))
 (let (($x2106 (= cell_2_9 6)))
 (let (($x1619 (= cell_2_9 5)))
 (let (($x3468 (= cell_2_9 4)))
 (let (($x3645 (= cell_2_9 3)))
 (let (($x1386 (= cell_2_9 2)))
 (let (($x377 (= cell_2_9 1)))
 (or $x377 $x1386 $x3645 $x3468 $x1619 $x2106 $x2190 $x2703 $x50)))))))))))
(assert
 (let (($x1966 (= cell_3_9 9)))
 (let (($x2716 (= cell_3_9 8)))
 (let (($x2146 (= cell_3_9 7)))
 (let (($x2734 (= cell_3_9 6)))
 (let (($x677 (= cell_3_9 5)))
 (let (($x1589 (= cell_3_9 4)))
 (let (($x2340 (= cell_3_9 3)))
 (let (($x1164 (= cell_3_9 2)))
 (let (($x2157 (= cell_3_9 1)))
 (or $x2157 $x1164 $x2340 $x1589 $x677 $x2734 $x2146 $x2716 $x1966)))))))))))
(assert
 (let (($x1774 (= cell_4_9 9)))
 (let (($x1591 (= cell_4_9 8)))
 (let (($x6784 (= cell_4_9 7)))
 (let (($x2814 (= cell_4_9 6)))
 (let (($x1679 (= cell_4_9 5)))
 (let (($x1913 (= cell_4_9 4)))
 (let (($x396 (= cell_4_9 3)))
 (let (($x2063 (= cell_4_9 2)))
 (let (($x3542 (= cell_4_9 1)))
 (or $x3542 $x2063 $x396 $x1913 $x1679 $x2814 $x6784 $x1591 $x1774)))))))))))
(assert
 (let (($x2753 (= cell_5_9 2)))
 (or (= cell_5_9 1) $x2753 (= cell_5_9 3) (= cell_5_9 4) (= cell_5_9 5) (= cell_5_9 6) (= cell_5_9 7) (= cell_5_9 8) (= cell_5_9 9))))
(assert
 (let (($x1821 (= cell_6_9 9)))
 (let (($x2528 (= cell_6_9 8)))
 (let (($x2398 (= cell_6_9 7)))
 (let (($x1840 (= cell_6_9 6)))
 (let (($x2575 (= cell_6_9 5)))
 (let (($x112 (= cell_6_9 4)))
 (let (($x881 (= cell_6_9 3)))
 (let (($x2283 (= cell_6_9 2)))
 (let (($x1188 (= cell_6_9 1)))
 (or $x1188 $x2283 $x881 $x112 $x2575 $x1840 $x2398 $x2528 $x1821)))))))))))
(assert
 (let (($x2056 (= cell_7_9 9)))
 (let (($x2391 (= cell_7_9 8)))
 (let (($x1507 (= cell_7_9 7)))
 (let (($x816 (= cell_7_9 6)))
 (let (($x3858 (= cell_7_9 5)))
 (let (($x4131 (= cell_7_9 4)))
 (let (($x1601 (= cell_7_9 3)))
 (let (($x520 (= cell_7_9 2)))
 (let (($x187 (= cell_7_9 1)))
 (or $x187 $x520 $x1601 $x4131 $x3858 $x816 $x1507 $x2391 $x2056)))))))))))
(assert
 (let (($x6798 (= cell_8_9 9)))
 (let (($x3987 (= cell_8_9 8)))
 (let (($x989 (= cell_8_9 7)))
 (let (($x3528 (= cell_8_9 6)))
 (let (($x313 (= cell_8_9 5)))
 (let (($x1000 (= cell_8_9 4)))
 (let (($x2960 (= cell_8_9 3)))
 (let (($x389 (= cell_8_9 2)))
 (let (($x958 (= cell_8_9 1)))
 (or $x958 $x389 $x2960 $x1000 $x313 $x3528 $x989 $x3987 $x6798)))))))))))
(assert
 (let (($x3359 (= cell_9_9 1)))
 (or $x3359 (= cell_9_9 2) (= cell_9_9 3) (= cell_9_9 4) (= cell_9_9 5) (= cell_9_9 6) (= cell_9_9 7) (= cell_9_9 8) (= cell_9_9 9))))
(assert
 (and (distinct cell_1_1 cell_1_2 cell_1_3 cell_1_4 cell_1_5 cell_1_6 cell_1_7 cell_1_8 cell_1_9) true))
(assert
 (and (distinct cell_2_1 cell_2_2 cell_2_3 cell_2_4 cell_2_5 cell_2_6 cell_2_7 cell_2_8 cell_2_9) true))
(assert
 (and (distinct cell_3_1 cell_3_2 cell_3_3 cell_3_4 cell_3_5 cell_3_6 cell_3_7 cell_3_8 cell_3_9) true))
(assert
 (and (distinct cell_4_1 cell_4_2 cell_4_3 cell_4_4 cell_4_5 cell_4_6 cell_4_7 cell_4_8 cell_4_9) true))
(assert
 (and (distinct cell_5_1 cell_5_2 cell_5_3 cell_5_4 cell_5_5 cell_5_6 cell_5_7 cell_5_8 cell_5_9) true))
(assert
 (and (distinct cell_6_1 cell_6_2 cell_6_3 cell_6_4 cell_6_5 cell_6_6 cell_6_7 cell_6_8 cell_6_9) true))
(assert
 (and (distinct cell_7_1 cell_7_2 cell_7_3 cell_7_4 cell_7_5 cell_7_6 cell_7_7 cell_7_8 cell_7_9) true))
(assert
 (and (distinct cell_8_1 cell_8_2 cell_8_3 cell_8_4 cell_8_5 cell_8_6 cell_8_7 cell_8_8 cell_8_9) true))
(assert
 (and (distinct cell_9_1 cell_9_2 cell_9_3 cell_9_4 cell_9_5 cell_9_6 cell_9_7 cell_9_8 cell_9_9) true))
(assert
 (and (distinct cell_1_1 cell_2_1 cell_3_1 cell_4_1 cell_5_1 cell_6_1 cell_7_1 cell_8_1 cell_9_1) true))
(assert
 (and (distinct cell_1_2 cell_2_2 cell_3_2 cell_4_2 cell_5_2 cell_6_2 cell_7_2 cell_8_2 cell_9_2) true))
(assert
 (and (distinct cell_1_3 cell_2_3 cell_3_3 cell_4_3 cell_5_3 cell_6_3 cell_7_3 cell_8_3 cell_9_3) true))
(assert
 (and (distinct cell_1_4 cell_2_4 cell_3_4 cell_4_4 cell_5_4 cell_6_4 cell_7_4 cell_8_4 cell_9_4) true))
(assert
 (and (distinct cell_1_5 cell_2_5 cell_3_5 cell_4_5 cell_5_5 cell_6_5 cell_7_5 cell_8_5 cell_9_5) true))
(assert
 (and (distinct cell_1_6 cell_2_6 cell_3_6 cell_4_6 cell_5_6 cell_6_6 cell_7_6 cell_8_6 cell_9_6) true))
(assert
 (and (distinct cell_1_7 cell_2_7 cell_3_7 cell_4_7 cell_5_7 cell_6_7 cell_7_7 cell_8_7 cell_9_7) true))
(assert
 (and (distinct cell_1_8 cell_2_8 cell_3_8 cell_4_8 cell_5_8 cell_6_8 cell_7_8 cell_8_8 cell_9_8) true))
(assert
 (and (distinct cell_1_9 cell_2_9 cell_3_9 cell_4_9 cell_5_9 cell_6_9 cell_7_9 cell_8_9 cell_9_9) true))
(assert
 (and (distinct cell_1_1 cell_1_2 cell_1_3 cell_2_1 cell_2_2 cell_2_3 cell_3_1 cell_3_2 cell_3_3) true))
(assert
 (and (distinct cell_1_4 cell_1_5 cell_1_6 cell_2_4 cell_2_5 cell_2_6 cell_3_4 cell_3_5 cell_3_6) true))
(assert
 (and (distinct cell_1_7 cell_1_8 cell_1_9 cell_2_7 cell_2_8 cell_2_9 cell_3_7 cell_3_8 cell_3_9) true))
(assert
 (and (distinct cell_4_1 cell_4_2 cell_4_3 cell_5_1 cell_5_2 cell_5_3 cell_6_1 cell_6_2 cell_6_3) true))
(assert
 (and (distinct cell_4_4 cell_4_5 cell_4_6 cell_5_4 cell_5_5 cell_5_6 cell_6_4 cell_6_5 cell_6_6) true))
(assert
 (and (distinct cell_4_7 cell_4_8 cell_4_9 cell_5_7 cell_5_8 cell_5_9 cell_6_7 cell_6_8 cell_6_9) true))
(assert
 (and (distinct cell_7_1 cell_7_2 cell_7_3 cell_8_1 cell_8_2 cell_8_3 cell_9_1 cell_9_2 cell_9_3) true))
(assert
 (and (distinct cell_7_4 cell_7_5 cell_7_6 cell_8_4 cell_8_5 cell_8_6 cell_9_4 cell_9_5 cell_9_6) true))
(assert
 (and (distinct cell_7_7 cell_7_8 cell_7_9 cell_8_7 cell_8_8 cell_8_9 cell_9_7 cell_9_8 cell_9_9) true))
(assert
 (let (($x1598 (and (distinct cell_5_9 cell_6_8 cell_7_7 cell_8_6) true)))
 (let (($x3465 (and (distinct cell_2_9 cell_3_8 cell_4_7 cell_5_6 cell_6_5 cell_7_4 cell_8_3 cell_9_2) true)))
 (let (($x2996 (and (distinct cell_1_8 cell_2_7 cell_3_6 cell_4_5 cell_5_4 cell_6_3 cell_7_2 cell_8_1) true)))
 (let (($x807 (and (distinct cell_1_5 cell_2_4 cell_3_3 cell_4_2) true)))
 (let (($x2129 (and (distinct cell_5_1 cell_6_2 cell_7_3 cell_8_4) true)))
 (let (($x2413 (and (distinct cell_2_1 cell_3_2 cell_4_3 cell_5_4 cell_6_5 cell_7_6 cell_8_7 cell_9_8) true)))
 (let (($x2499 (and (distinct cell_1_2 cell_2_3 cell_3_4 cell_4_5 cell_5_6 cell_6_7 cell_7_8 cell_8_9) true)))
 (let (($x2084 (and (distinct cell_1_5 cell_2_6 cell_3_7 cell_4_8) true)))
 (and $x2084 $x2499 $x2413 $x2129 $x807 $x2996 $x3465 $x1598))))))))))
(assert
 (= cell_7_5 2))
(check-sat)
